(set-logic QF_S)
(declare-fun T_3f () Bool)
(declare-fun T_40 () Bool)
(declare-fun T_SELECT_7 () Bool)
(declare-fun I0_101 () Int)
(declare-fun I0_97 () Int)
(declare-fun I1_101 () Int)
(declare-fun I1_97 () Int)
(declare-fun I2_101 () Int)
(declare-fun I2_97 () Int)
(declare-fun PCTEMP_LHS_25 () Int)
(declare-fun T_44 () Int)
(declare-fun NEW_DGNode_1532 () String)
(declare-fun NEW_DGNode_1533 () String)
(declare-fun PCTEMP_LHS_29 () String)
(assert (= PCTEMP_LHS_29 NEW_DGNode_1533))
(assert (= NEW_DGNode_1533 NEW_DGNode_1532))
(assert (not (str.in.re NEW_DGNode_1533 (str.to.re "+"))))
(assert (not (str.in.re NEW_DGNode_1532 (str.to.re "%"))))
(assert (= T_SELECT_7 (not (= PCTEMP_LHS_25 (- 1)))))
(assert T_40)
(assert (= T_40 (not T_3f)))
(assert (= T_3f (= PCTEMP_LHS_25 (- 1))))
(assert (= I0_97 (- PCTEMP_LHS_25 0)))
(assert (>= PCTEMP_LHS_25 0))
(assert (= I2_97 I1_97))
(assert (<= PCTEMP_LHS_25 I1_97))
(assert (= T_44 (+ PCTEMP_LHS_25 1)))
(assert (>= T_44 0))
(assert (>= I2_101 T_44))
(assert (= I2_101 I1_101))
(assert (<= I2_101 I1_101))
(assert (= I0_101 (- I2_101 T_44)))
(assert (= I0_101 (str.len PCTEMP_LHS_29))) ; len 0
(check-sat)
